NAME : euro-night-0000040.instance.-45291658.tour
COMMENT : Length = -45291658
COMMENT : Found by LKH [Keld Helsgaun] Tue May 21 23:13:54 2019
TYPE : TOUR
DIMENSION : 40
TOUR_SECTION
1
4
5
3
6
7
9
8
16
19
30
17
11
10
13
12
20
24
21
25
15
14
23
28
27
32
31
26
22
40
39
38
35
37
29
33
34
36
18
2
-1
EOF
